 $SYSTEM MWORDS=125 $END
 $GDDI NGROUP=1 $END
 $SCF CONV=1E-7 DIRSCF=.T. NPUNCH=0 DIIS=.F. SOSCF=.T. $END
 $CONTRL NPRINT=-5 ISPHER=1
         RUNTYP=ENERGY
 $END
 $BASIS GBASIS=DFTB $END
 $FMOPRP NPRINT=9 NGUESS=2 $END
 $FMO
      NFRAG=285
      NBODY=2
      RESDIM=2.0
      RCORSD=2.0
      NLAYER=1
      MPLEVL(1)=0
      ICHARG(1)=  1,  0,  0,  0,  0,  0,  0,  0,  0,  0,
                   0,  0,  0,  0,  0,  0,  0,  0,  0,  0,
                  -1,  0,  0,  0,  1,  0,  0,  0,  0,  0,
                   0,  0,  0,  0,  0,  0,  0, -1,  0, -1,
                   0,  1,  1,  0,  0,  0,  0,  0,  1,  0,
                   0,  0,  1,  0,  0, -1,  0,  0, -1,  0,
                   0,  0,  0,  0,  0, -1,  0,  0,  0,  0,
                   1, -1,  0,  0,  0,  0,  0,  0,  0,  0,
                   0,  0,  0,  0,  0,  0,  1,  0, -1,  0,
                   0,  0,  0,  0,  0,  0,  0,  0,  0,  1,
                   0,  0, -1,  0,  1,  0,  0,  0,  1,  0,
                  -1,  0,  0,  0,  0,  0,  0,  1, -1,  0,
                   0,  0,  0,  0,  0,  0,  0,  0,  1,  0,
                   0,  1,  0,  0,  0,  0,  1,  1,  0,  0,
                   0,  1, -1,  0,  0,  0,  1,  0,  0,  0,
                   0, -1, -1,  1,  0,  0,  0,  1,  0,  0,
                   0,  0,  0,  0,  0,  1, -1,  0,  0, -1,
                   1, -1,  0,  0,  0,  0,  0,  0,  1,  0,
                   0,  0,  1,  0,  0,  0,  1,  0,  0,  0,
                   0, -1,  0,  0,  0,  0,  0,  1,  0,  0,
                   0,  1,  0, -1,  0,  0,  0,  0,  0,  0,
                   0,  0,  0, -1,  0,  0,  0,  1,  0,  0,
                   0,  0,  0,  0, -1,  0,  0,  0,  0, -1,
                   0,  0,  0,  0,  0,  0,  0,  0,  1,  1,
                   0,  0,  0,  0, -1,  0,  0,  0, -1,  0,
                   0,  0, -1,  0,  0,  0,  1,  0,  0,  0,
                   0,  1,  0, -1,  0,  1,  0,  0,  0,  0,
                  -1,  0,  0,  0,  1,  0,  0,  0,  0,  0,
                   0,  0,  0,  0,  0
      FRGNAM(1)= LEU001,  LEU002,  VAL003,  GLN004,  ALA005,
                  VAL006,  GLN007,  HIE008,  VAL009,  VAL010,
                  ILE011,  GLY012,  PRO013,  SER014,  SER015,
                  LEU016,  ILE017,  VAL018,  HID019,  PHE020,
                  ASN021,  GLU022,  VAL023,  ILE024,  GLY025,
                  ARG026,  GLY027,  HID028,  PHE029,  GLY030,
                  CYS031,  VAL032,  TYR033,  HID034,  GLY035,
                  THR036,  LEU037,  LEU038,  ASP039,  ASN040,
                  ASP041,  GLY042,  LYS043,  LYS044,  ILE045,
                  HID046,  CYS047,  ALA048,  VAL049,  LYS050,
                  SER051,  LEU052,  ASN053,  ARG054,  ILE055,
                  THR056,  ASP057,  ILE058,  GLY059,  GLU060,
                  VAL061,  SER062,  GLN063,  PHE064,  LEU065,
                  THR066,  GLU067,  GLY068,  ILE069,  ILE070,
                  MET071,  LYS072,  ASP073,  PHE074,  SER075,
                  HIE076,  PRO077,  ASN078,  VAL079,  LEU080,
                  SER081,  LEU082,  LEU083,  GLY084,  ILE085,
                  CYS086,  LEU087,  ARG088,  SER089,  GLU090,
                  GLY091,  SER092,  PRO093,  LEU094,  VAL095,
                  VAL096,  LEU097,  PRO098,  TYR099,  MET100,
                  LYS101,  HID102,  GLY103,  ASP104,  LEU105,
                  ARG106,  ASN107,  PHE108,  ILE109,  ARG110,
                  ASN111,  GLU112,  THR113,  HID114,  ASN115,
                  PRO116,  THR117,  VAL118,  LYS119,  ASP120,
                  LEU121,  ILE122,  GLY123,  PHE124,  GLY125,
                  LEU126,  GLN127,  VAL128,  ALA129,  LYS130,
                  GLY131,  MET132,  LYS133,  TYR134,  LEU135,
                  ALA136,  SER137,  LYS138,  LYS139,  PHE140,
                  VAL141,  HIE142,  ARG143,  ASP144,  LEU145,
                  ALA146,  ALA147,  ARG148,  ASN149,  CYS150,
                  MET151,  LEU152,  ASP153,  GLU154,  LYS155,
                  PHE156,  THR157,  VAL158,  LYS159,  VAL160,
                  ALA161,  ASH162,  PHE163,  GLY164,  LEU165,
                  ALA166,  ARG167,  ASP168,  MET169,  TYR170,
                  ASP171,  LYS172,  GLU173,  TYR174,  TYR175,
                  SER176,  VAL177,  HID178,  ASN179,  LYS180,
                  THR181,  GLY182,  ALA183,  LYS184,  LEU185,
                  PRO186,  VAL187,  LYS188,  TRP189,  MET190,
                  ALA191,  LEU192,  GLU193,  SER194,  LEU195,
                  GLN196,  THR197,  GLN198,  LYS199,  PHE200,
                  THR201,  THR202,  LYS203,  SER204,  ASP205,
                  VAL206,  TRP207,  SER208,  PHE209,  GLY210,
                  VAL211,  LEU212,  LEU213,  TRP214,  GLU215,
                  LEU216,  MET217,  THR218,  ARG219,  GLY220,
                  ALA221,  PRO222,  PRO223,  TYR224,  PRO225,
                  ASP226,  VAL227,  ASN228,  THR229,  PHE230,
                  ASP231,  ILE232,  THR233,  VAL234,  TYR235,
                  LEU236,  LEU237,  GLN238,  GLY239,  ARG240,
                  ARG241,  LEU242,  LEU243,  GLN244,  PRO245,
                  GLU246,  TYR247,  CYS248,  PRO249,  ASP250,
                  PRO251,  LEU252,  TYR253,  GLU254,  VAL255,
                  MET256,  LEU257,  LYS258,  CYS259,  TRP260,
                  HIE261,  PRO262,  LYS263,  ALA264,  GLU265,
                  MET266,  ARG267,  PRO268,  SER269,  PHE270,
                  SER271,  GLU272,  LEU273,  VAL274,  SER275,
                  ARG276,  ILE277,  SER278,  ALA279,  ILE280,
                  PHE281,  SER282,  THR283,  PHE284,  ILE285
      INDAT(1)=0
                1    -19      0
               20    -35      0
               36    -52      0
               53    -62      0
               63    -78      0
               79    -95      0
               96   -112      0
              113   -128      0
              129   -144      0
              145   -163      0
              164   -170      0
              171   -184      0
              185   -195      0
              196   -206      0
              207   -225      0
              226   -244      0
              245   -260      0
              261   -277      0
              278   -297      0
              298   -311      0
              312   -326      0
              327   -342      0
              343   -361      0
              362   -368      0
              369   -392      0
              393   -399      0
              400   -416      0
              417   -436      0
              437   -443      0
              444   -454      0
              455   -470      0
              471   -491      0
              492   -508      0
              509   -515      0
              516   -529      0
              530   -548      0
              549   -567      0
              568   -579      0
              580   -593      0
              594   -605      0
              606   -612      0
              613   -634      0
              635   -656      0
              657   -675      0
              676   -692      0
              693   -703      0
              704   -713      0
              714   -729      0
              730   -751      0
              752   -762      0
              763   -781      0
              782   -795      0
              796   -819      0
              820   -838      0
              839   -852      0
              853   -864      0
              865   -883      0
              884   -890      0
              891   -905      0
              906   -921      0
              922   -932      0
              933   -949      0
              950   -969      0
              970   -988      0
              989  -1002      0
             1003  -1017      0
             1018  -1024      0
             1025  -1043      0
             1044  -1062      0
             1063  -1079      0
             1080  -1101      0
             1102  -1113      0
             1114  -1133      0
             1134  -1144      0
             1145  -1161      0
             1162  -1175      0
             1176  -1189      0
             1190  -1205      0
             1206  -1224      0
             1225  -1235      0
             1236  -1254      0
             1255  -1273      0
             1274  -1280      0
             1281  -1299      0
             1300  -1310      0
             1311  -1329      0
             1330  -1353      0
             1354  -1364      0
             1365  -1379      0
             1380  -1386      0
             1387  -1397      0
             1398  -1411      0
             1412  -1430      0
             1431  -1446      0
             1447  -1462      0
             1463  -1481      0
             1482  -1495      0
             1496  -1516      0
             1517  -1533      0
             1534  -1555      0
             1556  -1572      0
             1573  -1579      0
             1580  -1591      0
             1592  -1610      0
             1611  -1634      0
             1635  -1648      0
             1649  -1668      0
             1669  -1687      0
             1688  -1711      0
             1712  -1725      0
             1726  -1740      0
             1741  -1754      0
             1755  -1771      0
             1772  -1785      0
             1786  -1799      0
             1800  -1813      0
             1814  -1829      0
             1830  -1851      0
             1852  -1863      0
             1864  -1882      0
             1883  -1901      0
             1902  -1908      0
             1909  -1928      0
             1929  -1935      0
             1936  -1954      0
             1955  -1971      0
             1972  -1987      0
             1988  -1997      0
             1998  -2019      0
             2020  -2026      0
             2027  -2043      0
             2044  -2065      0
             2066  -2086      0
             2087  -2105      0
             2106  -2115      0
             2116  -2126      0
             2127  -2148      0
             2149  -2170      0
             2171  -2190      0
             2191  -2206      0
             2207  -2223      0
             2224  -2247      0
             2248  -2259      0
             2260  -2278      0
             2279  -2288      0
             2289  -2298      0
             2299  -2322      0
             2323  -2336      0
             2337  -2347      0
             2348  -2364      0
             2365  -2383      0
             2384  -2395      0
             2396  -2410      0
             2411  -2432      0
             2433  -2452      0
             2453  -2466      0
             2467  -2482      0
             2483  -2504      0
             2505  -2520      0
             2521  -2530      0
             2531  -2543      0
             2544  -2563      0
             2564  -2570      0
             2571  -2589      0
             2590  -2599      0
             2600  -2623      0
             2624  -2635      0
             2636  -2652      0
             2653  -2673      0
             2674  -2685      0
             2686  -2707      0
             2708  -2722      0
             2723  -2743      0
             2744  -2764      0
             2765  -2775      0
             2776  -2791      0
             2792  -2808      0
             2809  -2822      0
             2823  -2844      0
             2845  -2858      0
             2859  -2865      0
             2866  -2875      0
             2876  -2897      0
             2898  -2916      0
             2917  -2930      0
             2931  -2946      0
             2947  -2968      0
             2969  -2992      0
             2993  -3009      0
             3010  -3019      0
             3020  -3038      0
             3039  -3053      0
             3054  -3064      0
             3065  -3083      0
             3084  -3100      0
             3101  -3114      0
             3115  -3131      0
             3132  -3153      0
             3154  -3173      0
             3174  -3187      0
             3188  -3201      0
             3202  -3223      0
             3224  -3234      0
             3235  -3246      0
             3247  -3262      0
             3263  -3286      0
             3287  -3297      0
             3298  -3317      0
             3318  -3324      0
             3325  -3340      0
             3341  -3359      0
             3360  -3378      0
             3379  -3402      0
             3403  -3417      0
             3418  -3436      0
             3437  -3453      0
             3454  -3467      0
             3468  -3491      0
             3492  -3498      0
             3499  -3508      0
             3509  -3522      0
             3523  -3536      0
             3537  -3557      0
             3558  -3571      0
             3572  -3583      0
             3584  -3599      0
             3600  -3613      0
             3614  -3627      0
             3628  -3647      0
             3648  -3659      0
             3660  -3678      0
             3679  -3692      0
             3693  -3708      0
             3709  -3729      0
             3730  -3748      0
             3749  -3767      0
             3768  -3784      0
             3785  -3791      0
             3792  -3815      0
             3816  -3839      0
             3840  -3858      0
             3859  -3877      0
             3878  -3894      0
             3895  -3908      0
             3909  -3923      0
             3924  -3944      0
             3945  -3955      0
             3956  -3969      0
             3970  -3981      0
             3982  -3995      0
             3996  -4014      0
             4015  -4035      0
             4036  -4050      0
             4051  -4066      0
             4067  -4083      0
             4084  -4102      0
             4103  -4124      0
             4125  -4135      0
             4136  -4159      0
             4160  -4176      0
             4177  -4190      0
             4191  -4212      0
             4213  -4222      0
             4223  -4237      0
             4238  -4254      0
             4255  -4278      0
             4279  -4292      0
             4293  -4303      0
             4304  -4323      0
             4324  -4334      0
             4335  -4349      0
             4350  -4368      0
             4369  -4384      0
             4385  -4395      0
             4396  -4419      0
             4420  -4438      0
             4439  -4449      0
             4450  -4459      0
             4460  -4478      0
             4479  -4498      0
             4499  -4509      0
             4510  -4523      0
             4524  -4543      0
             4544  -4562      0
             4563  -4577      0



 $END
 $FMOBND
        -5        20 DFTB-C
       -24        36 DFTB-C
       -40        53 DFTB-C
       -57        63 DFTB-C
       -67        79 DFTB-C
       -83        96 DFTB-C
      -100       113 DFTB-C
      -117       129 DFTB-C
      -133       145 DFTB-C
      -149       164 DFTB-C
      -168       171 DFTB-C
      -183       185 DFTB-C
      -189       196 DFTB-C
      -200       207 DFTB-C
      -211       226 DFTB-C
      -230       245 DFTB-C
      -249       261 DFTB-C
      -265       278 DFTB-C
      -282       298 DFTB-C
      -302       312 DFTB-C
      -316       327 DFTB-C
      -331       343 DFTB-C
      -347       362 DFTB-C
      -366       369 DFTB-C
      -373       393 DFTB-C
      -397       400 DFTB-C
      -404       417 DFTB-C
      -421       437 DFTB-C
      -441       444 DFTB-C
      -448       455 DFTB-C
      -459       471 DFTB-C
      -475       492 DFTB-C
      -496       509 DFTB-C
      -513       516 DFTB-C
      -520       530 DFTB-C
      -534       549 DFTB-C
      -553       568 DFTB-C
      -572       580 DFTB-C
      -584       594 DFTB-C
      -598       606 DFTB-C
      -610       613 DFTB-C
      -617       635 DFTB-C
      -639       657 DFTB-C
      -661       676 DFTB-C
      -680       693 DFTB-C
      -697       704 DFTB-C
      -708       714 DFTB-C
      -718       730 DFTB-C
      -734       752 DFTB-C
      -756       763 DFTB-C
      -767       782 DFTB-C
      -786       796 DFTB-C
      -800       820 DFTB-C
      -824       839 DFTB-C
      -843       853 DFTB-C
      -857       865 DFTB-C
      -869       884 DFTB-C
      -888       891 DFTB-C
      -895       906 DFTB-C
      -910       922 DFTB-C
      -926       933 DFTB-C
      -937       950 DFTB-C
      -954       970 DFTB-C
      -974       989 DFTB-C
      -993      1003 DFTB-C
     -1007      1018 DFTB-C
     -1022      1025 DFTB-C
     -1029      1044 DFTB-C
     -1048      1063 DFTB-C
     -1067      1080 DFTB-C
     -1084      1102 DFTB-C
     -1106      1114 DFTB-C
     -1118      1134 DFTB-C
     -1138      1145 DFTB-C
     -1149      1162 DFTB-C
     -1174      1176 DFTB-C
     -1180      1190 DFTB-C
     -1194      1206 DFTB-C
     -1210      1225 DFTB-C
     -1229      1236 DFTB-C
     -1240      1255 DFTB-C
     -1259      1274 DFTB-C
     -1278      1281 DFTB-C
     -1285      1300 DFTB-C
     -1304      1311 DFTB-C
     -1315      1330 DFTB-C
     -1334      1354 DFTB-C
     -1358      1365 DFTB-C
     -1369      1380 DFTB-C
     -1384      1387 DFTB-C
     -1391      1398 DFTB-C
     -1410      1412 DFTB-C
     -1416      1431 DFTB-C
     -1435      1447 DFTB-C
     -1451      1463 DFTB-C
     -1467      1482 DFTB-C
     -1494      1496 DFTB-C
     -1500      1517 DFTB-C
     -1521      1534 DFTB-C
     -1538      1556 DFTB-C
     -1560      1573 DFTB-C
     -1577      1580 DFTB-C
     -1584      1592 DFTB-C
     -1596      1611 DFTB-C
     -1615      1635 DFTB-C
     -1639      1649 DFTB-C
     -1653      1669 DFTB-C
     -1673      1688 DFTB-C
     -1692      1712 DFTB-C
     -1716      1726 DFTB-C
     -1730      1741 DFTB-C
     -1745      1755 DFTB-C
     -1759      1772 DFTB-C
     -1776      1786 DFTB-C
     -1798      1800 DFTB-C
     -1804      1814 DFTB-C
     -1818      1830 DFTB-C
     -1834      1852 DFTB-C
     -1856      1864 DFTB-C
     -1868      1883 DFTB-C
     -1887      1902 DFTB-C
     -1906      1909 DFTB-C
     -1913      1929 DFTB-C
     -1933      1936 DFTB-C
     -1940      1955 DFTB-C
     -1959      1972 DFTB-C
     -1976      1988 DFTB-C
     -1992      1998 DFTB-C
     -2002      2020 DFTB-C
     -2024      2027 DFTB-C
     -2031      2044 DFTB-C
     -2048      2066 DFTB-C
     -2070      2087 DFTB-C
     -2091      2106 DFTB-C
     -2110      2116 DFTB-C
     -2120      2127 DFTB-C
     -2131      2149 DFTB-C
     -2153      2171 DFTB-C
     -2175      2191 DFTB-C
     -2195      2207 DFTB-C
     -2211      2224 DFTB-C
     -2228      2248 DFTB-C
     -2252      2260 DFTB-C
     -2264      2279 DFTB-C
     -2283      2289 DFTB-C
     -2293      2299 DFTB-C
     -2303      2323 DFTB-C
     -2327      2337 DFTB-C
     -2341      2348 DFTB-C
     -2352      2365 DFTB-C
     -2369      2384 DFTB-C
     -2388      2396 DFTB-C
     -2400      2411 DFTB-C
     -2415      2433 DFTB-C
     -2437      2453 DFTB-C
     -2457      2467 DFTB-C
     -2471      2483 DFTB-C
     -2487      2505 DFTB-C
     -2509      2521 DFTB-C
     -2525      2531 DFTB-C
     -2535      2544 DFTB-C
     -2548      2564 DFTB-C
     -2568      2571 DFTB-C
     -2575      2590 DFTB-C
     -2594      2600 DFTB-C
     -2604      2624 DFTB-C
     -2628      2636 DFTB-C
     -2640      2653 DFTB-C
     -2657      2674 DFTB-C
     -2678      2686 DFTB-C
     -2690      2708 DFTB-C
     -2712      2723 DFTB-C
     -2727      2744 DFTB-C
     -2748      2765 DFTB-C
     -2769      2776 DFTB-C
     -2780      2792 DFTB-C
     -2796      2809 DFTB-C
     -2813      2823 DFTB-C
     -2827      2845 DFTB-C
     -2849      2859 DFTB-C
     -2863      2866 DFTB-C
     -2870      2876 DFTB-C
     -2880      2898 DFTB-C
     -2902      2917 DFTB-C
     -2929      2931 DFTB-C
     -2935      2947 DFTB-C
     -2951      2969 DFTB-C
     -2973      2993 DFTB-C
     -2997      3010 DFTB-C
     -3014      3020 DFTB-C
     -3024      3039 DFTB-C
     -3043      3054 DFTB-C
     -3058      3065 DFTB-C
     -3069      3084 DFTB-C
     -3088      3101 DFTB-C
     -3105      3115 DFTB-C
     -3119      3132 DFTB-C
     -3136      3154 DFTB-C
     -3158      3174 DFTB-C
     -3178      3188 DFTB-C
     -3192      3202 DFTB-C
     -3206      3224 DFTB-C
     -3228      3235 DFTB-C
     -3239      3247 DFTB-C
     -3251      3263 DFTB-C
     -3267      3287 DFTB-C
     -3291      3298 DFTB-C
     -3302      3318 DFTB-C
     -3322      3325 DFTB-C
     -3329      3341 DFTB-C
     -3345      3360 DFTB-C
     -3364      3379 DFTB-C
     -3383      3403 DFTB-C
     -3407      3418 DFTB-C
     -3422      3437 DFTB-C
     -3441      3454 DFTB-C
     -3458      3468 DFTB-C
     -3472      3492 DFTB-C
     -3496      3499 DFTB-C
     -3503      3509 DFTB-C
     -3521      3523 DFTB-C
     -3535      3537 DFTB-C
     -3541      3558 DFTB-C
     -3570      3572 DFTB-C
     -3576      3584 DFTB-C
     -3588      3600 DFTB-C
     -3604      3614 DFTB-C
     -3618      3628 DFTB-C
     -3632      3648 DFTB-C
     -3652      3660 DFTB-C
     -3664      3679 DFTB-C
     -3683      3693 DFTB-C
     -3697      3709 DFTB-C
     -3713      3730 DFTB-C
     -3734      3749 DFTB-C
     -3753      3768 DFTB-C
     -3772      3785 DFTB-C
     -3789      3792 DFTB-C
     -3796      3816 DFTB-C
     -3820      3840 DFTB-C
     -3844      3859 DFTB-C
     -3863      3878 DFTB-C
     -3882      3895 DFTB-C
     -3907      3909 DFTB-C
     -3913      3924 DFTB-C
     -3928      3945 DFTB-C
     -3949      3956 DFTB-C
     -3968      3970 DFTB-C
     -3974      3982 DFTB-C
     -3994      3996 DFTB-C
     -4000      4015 DFTB-C
     -4019      4036 DFTB-C
     -4040      4051 DFTB-C
     -4055      4067 DFTB-C
     -4071      4084 DFTB-C
     -4088      4103 DFTB-C
     -4107      4125 DFTB-C
     -4129      4136 DFTB-C
     -4140      4160 DFTB-C
     -4164      4177 DFTB-C
     -4189      4191 DFTB-C
     -4195      4213 DFTB-C
     -4217      4223 DFTB-C
     -4227      4238 DFTB-C
     -4242      4255 DFTB-C
     -4259      4279 DFTB-C
     -4291      4293 DFTB-C
     -4297      4304 DFTB-C
     -4308      4324 DFTB-C
     -4328      4335 DFTB-C
     -4339      4350 DFTB-C
     -4354      4369 DFTB-C
     -4373      4385 DFTB-C
     -4389      4396 DFTB-C
     -4400      4420 DFTB-C
     -4424      4439 DFTB-C
     -4443      4450 DFTB-C
     -4454      4460 DFTB-C
     -4464      4479 DFTB-C
     -4483      4499 DFTB-C
     -4503      4510 DFTB-C
     -4514      4524 DFTB-C
     -4528      4544 DFTB-C
     -4548      4563 DFTB-C
 $END
 $DATA
Data Title
c1
H 1
C 6
N 7
O 8
S 16
 $END
 $FMOHYB
 DFTB-C 4 4
   1 0  0.558756  0.000000  0.000000  0.829332
   0 1  0.558757  0.781901  0.000000 -0.276445
   0 1  0.558756 -0.390951  0.677146 -0.276445
   0 1  0.558756 -0.390951 -0.677146 -0.276445
 $END
 $FMOXYZ
      1      N        15.743000    40.920000    84.379000
      2      H        15.383000    41.864000    84.400000
      3      H        16.741000    41.072000    84.387000
      4      H        15.307000    40.388000    85.119000
      5      C        15.476000    40.166000    83.150000
      6      H        15.015000    39.224000    83.452000
      7      C        14.471000    40.963000    82.279000
      8      H        13.575000    41.157000    82.869000
      9      H        14.902000    41.943000    82.065000
     10      C        14.044000    40.309000    80.937000
     11      H        14.940000    40.181000    80.328000
     12      C        13.414000    38.910000    81.123000
     13      H        12.512000    38.774000    80.527000
     14      H        14.111000    38.130000    80.817000
     15      H        13.141000    38.718000    82.160000
     16      C        13.129000    41.255000    80.131000
     17      H        13.504000    41.381000    79.114000
     18      H        12.104000    40.890000    80.056000
     19      H        13.077000    42.249000    80.575000
     20      C        16.775000    39.851000    82.390000
     21      O        17.671000    40.695000    82.329000
     22      N        16.830000    38.642000    81.812000
     23      H        16.049000    38.011000    81.915000
     24      C        17.943000    38.139000    81.009000
     25      H        18.870000    38.474000    81.479000
     26      C        17.976000    36.587000    80.993000
     27      H        18.717000    36.263000    80.260000
     28      C        18.451000    36.028000    82.343000
     29      H        18.513000    34.940000    82.320000
     30      H        19.442000    36.404000    82.599000
     31      H        17.772000    36.304000    83.150000
     32      C        16.635000    35.950000    80.598000
     33      H        16.737000    34.868000    80.528000
     34      H        15.862000    36.149000    81.341000
     35      H        16.272000    36.323000    79.642000
     36      C        17.959000    38.723000    79.578000
     37      O        17.909000    38.000000    78.581000
     38      N        18.131000    40.051000    79.522000
     39      H        18.121000    40.572000    80.391000
     40      C        18.691000    40.756000    78.380000
     41      H        18.542000    40.153000    77.482000
     42      C        17.929000    42.068000    78.098000
     43      H        18.393000    42.571000    77.248000
     44      H        16.931000    41.789000    77.755000
     45      C        17.791000    43.071000    79.259000
     46      H        17.403000    42.578000    80.150000
     47      H        18.760000    43.491000    79.531000
     48      C        16.811000    44.184000    78.879000
     49      O        15.603000    43.961000    78.834000
     50      N        17.325000    45.383000    78.598000
     51      H        18.321000    45.538000    78.642000
     52      H        16.714000    46.146000    78.343000
     53      C        20.216000    40.851000    78.553000
     54      O        20.783000    41.940000    78.644000
     55      N        20.846000    39.658000    78.504000
     56      H        20.273000    38.826000    78.473000
     57      C        22.268000    39.423000    78.222000
     58      H        22.857000    40.045000    78.898000
     59      C        22.592000    37.949000    78.506000
     60      H        23.654000    37.741000    78.367000
     61      H        22.344000    37.684000    79.534000
     62      H        22.035000    37.281000    77.847000
     63      C        22.661000    39.807000    76.779000
     64      O        23.837000    39.721000    76.424000
     65      N        21.669000    40.309000    76.018000
     66      H        20.741000    40.273000    76.412000
     67      C        21.758000    41.133000    74.819000
     68      H        22.064000    40.499000    73.986000
     69      C        20.371000    41.776000    74.498000
     70      H        20.047000    42.326000    75.384000
     71      C        20.377000    42.798000    73.340000
     72      H        19.362000    43.056000    73.039000
     73      H        20.858000    43.731000    73.632000
     74      H        20.892000    42.409000    72.462000
     75      C        19.285000    40.712000    74.246000
     76      H        18.323000    41.171000    74.020000
     77      H        19.543000    40.063000    73.412000
     78      H        19.134000    40.076000    75.118000
     79      C        22.788000    42.262000    74.984000
     80      O        23.495000    42.516000    74.022000
     81      N        22.894000    42.839000    76.199000
     82      H        22.254000    42.526000    76.916000
     83      C        23.864000    43.842000    76.656000
     84      H        23.578000    44.786000    76.192000
     85      C        23.676000    44.020000    78.179000
     86      H        22.634000    44.296000    78.355000
     87      H        23.824000    43.059000    78.676000
     88      C        24.588000    45.086000    78.829000
     89      H        25.637000    44.811000    78.712000
     90      H        24.460000    46.040000    78.318000
     91      C        24.352000    45.315000    80.328000
     92      O        25.110000    46.051000    80.954000
     93      N        23.322000    44.707000    80.924000
     94      H        22.709000    44.102000    80.398000
     95      H        23.154000    44.849000    81.909000
     96      C        25.335000    43.559000    76.276000
     97      O        26.005000    44.464000    75.780000
     98      N        25.797000    42.314000    76.490000
     99      H        25.178000    41.616000    76.879000
    100      C        27.153000    41.851000    76.145000
    101      H        27.861000    42.627000    76.444000
    102      C        27.476000    40.564000    76.935000
    103      H        26.967000    39.712000    76.480000
    104      H        28.543000    40.347000    76.869000
    105      C        27.094000    40.589000    78.393000
    106      N        26.226000    39.647000    78.956000
    107      C        26.119000    40.005000    80.229000
    108      H        25.510000    39.474000    80.946000
    109      N        26.832000    41.091000    80.528000
    110      H        26.894000    41.538000    81.432000
    111      C        27.474000    41.487000    79.368000
    112      H        28.120000    42.352000    79.329000
    113      C        27.338000    41.578000    74.641000
    114      O        28.468000    41.516000    74.159000
    115      N        26.206000    41.382000    73.959000
    116      H        25.335000    41.488000    74.460000
    117      C        26.052000    40.955000    72.578000
    118      H        26.998000    40.538000    72.226000
    119      C        24.957000    39.833000    72.569000
    120      H        24.377000    39.928000    73.489000
    121      C        23.896000    39.815000    71.462000
    122      H        23.199000    38.995000    71.627000